/*********************************************
    * Lab01 - FCD_FCR
    * Author: Coso
    * Creation Date: Mar, 2019
    *********************************************/
instance_name = "small_instance_12_FCD_FCR";

d = 2;
r = 3;

SCj = [76 82];
Fj = [1452, 4619];
Dk = [51 44 28];

Cjk = [[87 43 45]
 [59 79 49]];
Fjk = [[499 892 408]
 [584 856 794]];
